27	3

10	10	10	

0	0	0	0	3	2	3	4	
2	3	5	2	3	5	6	7	
3	5	4	3	2	5	8	
1	5	2	2	1	5	
2	4	1	4	2	9	10	
9	5	5	4	2	9	11	
4	3	5	2	1	9	
7	2	4	4	1	12	
1	3	2	2	1	16	
6	3	2	4	2	13	15	
3	3	3	2	1	14	
4	4	1	4	1	13	
3	1	4	4	1	17	
3	2	2	2	2	17	20	
5	5	5	4	1	19	
1	1	5	4	1	18	
3	4	5	4	1	21	
7	3	2	3	2	21	23	
7	5	3	3	2	21	22	
4	2	4	6	2	21	24	
2	1	6	2	1	25	
7	3	2	1	1	26	
3	1	0	4	1	26	
4	2	2	1	1	26	
5	0	1	3	1	27	
5	2	2	2	1	27	
0	0	0	0	0	
